Function: get_partitions took 3.0040740966796875e-05 seconds
Function: map_flows_partitions took 5.245208740234375e-06 seconds
Building model with:
3 devices, 10 partitions and 1 flows
Using license file /home/anup/gurobi.lic
Academic license - for non-commercial use only
Function: MIP.add_frac_mem_var took 0.0003879070281982422 seconds
Function: MIP.add_coverage_constraints took 0.0003218650817871094 seconds
Function: MIP.add_accuracy_constraints took 0.0005934238433837891 seconds
Function: MIP.add_capacity_constraints took 0.0005784034729003906 seconds
Changed value of parameter TimeLimit to 120.0
   Prev: inf  Min: 0.0  Max: inf  Default: inf
--------------------------------------------------
Starting model update
Model update took: 0.00011658668518066406 s
--------------------------------------------------
Starting model optimize
Gurobi Optimizer version 9.0.0 build v9.0.0rc2 (linux64)
Optimize a model with 47 rows, 69 columns and 160 nonzeros
Model fingerprint: 0x7d96fef7
Model has 2 general constraints
Variable types: 39 continuous, 30 integer (30 binary)
Coefficient statistics:
  Matrix range     [2e-02, 3e+03]
  Objective range  [1e+00, 1e+00]
  Bounds range     [1e+00, 3e+04]
  RHS range        [1e+00, 1e+00]

---------------------------------------------------------------------------
Multi-objectives: starting optimization with 4 objectives ... 
---------------------------------------------------------------------------

Multi-objectives: applying initial presolve ...
---------------------------------------------------------------------------

Presolve removed 35 rows and 38 columns
Presolve time: 0.00s
Presolved: 12 rows and 31 columns
---------------------------------------------------------------------------

Multi-objectives: optimize objective 1 (tot_mem_CPU) ...
---------------------------------------------------------------------------

Presolve removed 7 rows and 17 columns
Presolve time: 0.00s
Presolved: 5 rows, 14 columns, 20 nonzeros
Presolved model has 2 SOS constraint(s)
Variable types: 2 continuous, 12 integer (8 binary)
Found heuristic solution: objective 10193.566406

Root relaxation: cutoff, 3 iterations, 0.00 seconds

    Nodes    |    Current Node    |     Objective Bounds      |     Work
 Expl Unexpl |  Obj  Depth IntInf | Incumbent    BestBd   Gap | It/Node Time

     0     0     cutoff    0      10193.5664 10193.5664  0.00%     -    0s

Explored 0 nodes (3 simplex iterations) in 0.00 seconds
Thread count was 8 (of 8 available processors)

Solution count 1: 10193.6 

Optimal solution found (tolerance 1.00e-04)
Best objective 1.019356640625e+04, best bound 1.019356640625e+04, gap 0.0000%
---------------------------------------------------------------------------

Multi-objectives: optimize objective 2 (CPU_mem_load) ...
---------------------------------------------------------------------------


Loaded user MIP start with objective 10193.6

Presolve removed 7 rows and 17 columns
Presolve time: 0.00s
Presolved: 6 rows, 14 columns, 27 nonzeros
Presolved model has 2 SOS constraint(s)
Variable types: 2 continuous, 12 integer (8 binary)

Root relaxation: objective 5.096783e+03, 5 iterations, 0.00 seconds

    Nodes    |    Current Node    |     Objective Bounds      |     Work
 Expl Unexpl |  Obj  Depth IntInf | Incumbent    BestBd   Gap | It/Node Time

     0     0 5096.78320    0    2 10193.5664 5096.78320  50.0%     -    0s
H    0     0                    6795.7109375 5096.78320  25.0%     -    0s

Cutting planes:
  Gomory: 1
  MIR: 3
  RLT: 2

Explored 1 nodes (5 simplex iterations) in 0.00 seconds
Thread count was 8 (of 8 available processors)

Solution count 2: 6795.71 10193.6 

Optimal solution found (tolerance 1.00e-04)
Best objective 6.795710937500e+03, best bound 6.795710937500e+03, gap 0.0000%
---------------------------------------------------------------------------

Multi-objectives: optimize objective 3 (tot_mem_P4) ...
---------------------------------------------------------------------------


Loaded user MIP start with objective 1.09766

Presolve time: 0.00s
Presolved: 14 rows, 31 columns, 74 nonzeros
Presolved model has 2 SOS constraint(s)
Variable types: 2 continuous, 29 integer (29 binary)

Root relaxation: objective 7.829861e-02, 16 iterations, 0.00 seconds

    Nodes    |    Current Node    |     Objective Bounds      |     Work
 Expl Unexpl |  Obj  Depth IntInf | Incumbent    BestBd   Gap | It/Node Time

     0     0    0.07830    0    4    1.09766    0.07830  92.9%     -    0s
H    0     0                       0.3398438    0.07830  77.0%     -    0s
     0     0 infeasible    0         0.33984    0.33984  0.00%     -    0s

Cutting planes:
  GUB cover: 1

Explored 1 nodes (19 simplex iterations) in 0.01 seconds
Thread count was 8 (of 8 available processors)

Solution count 2: 0.339844 1.09766 

Optimal solution found (tolerance 1.00e-04)
Best objective 3.398437500000e-01, best bound 3.398437500000e-01, gap 0.0000%
---------------------------------------------------------------------------

Multi-objectives: optimize objective 4 (P4_mem_load) ...
---------------------------------------------------------------------------


Loaded user MIP start with objective 0.339844

Presolve time: 0.00s
Presolved: 15 rows, 31 columns, 81 nonzeros
Presolved model has 2 SOS constraint(s)
Variable types: 2 continuous, 29 integer (29 binary)

Root relaxation: objective 7.829861e-02, 16 iterations, 0.00 seconds

    Nodes    |    Current Node    |     Objective Bounds      |     Work
 Expl Unexpl |  Obj  Depth IntInf | Incumbent    BestBd   Gap | It/Node Time

     0     0 infeasible    0         0.33984    0.33984  0.00%     -    0s

Explored 0 nodes (19 simplex iterations) in 0.01 seconds
Thread count was 8 (of 8 available processors)

Solution count 1: 0.339844 

Optimal solution found (tolerance 1.00e-04)
Best objective 3.398437500000e-01, best bound 3.398437500000e-01, gap 0.0000%

---------------------------------------------------------------------------
Multi-objectives: solved in 0.01 seconds, solution count 3

Model optimize took: 0.009006738662719727 seconds
--------------------------------------------------

Solution quality statistics for model UnivmonGreedy :
  Maximum violation:
    Bound       : 0.00000000e+00
    Constraint  : 0.00000000e+00
    Integrality : 0.00000000e+00

Sketch (0) (cm: eps0: 0.03125, del0: 0.05, min_mem: 0.33984375)
Par: 1, Rows: 1
(-0.000,0)    (1.000,1)    (-0.000,2)    
Total frac: 1.000
Par: 2, Rows: 1
(-0.000,2)    (-0.000,1)    (1.000,0)    
Total frac: 1.000
Par: 3, Rows: 1
(-0.000,1)    (1.000,2)    (-0.000,0)    
Total frac: 1.000

Sketch (1) (cm: eps0: 3.125e-06, del0: 0.05, min_mem: 3397.85546875)
Par: 1, Rows: 1
(0.000,1)    (-0.000,0)    (1.000,2)    
Total frac: 1.000
Par: 2, Rows: 1
(-0.000,2)    (1.000,0)    (0.000,1)    
Total frac: 1.000
Par: 3, Rows: 1
(-0.000,2)    (0.000,1)    (1.000,0)    
Total frac: 1.000

Sketch (2) (cm: eps0: 0.625, del0: 0.025, min_mem: 0.01953125)
Par: 1, Rows: 1
(-0.000,1)    (-0.000,2)    (1.000,0)    
Total frac: 1.000
Par: 2, Rows: 1
(-0.000,0)    (1.000,2)    (0.000,1)    
Total frac: 1.000
Par: 3, Rows: 1
(-0.000,2)    (1.000,0)    (0.000,1)    
Total frac: 1.000
Par: 4, Rows: 1
(-0.000,2)    (0.000,1)    (1.000,0)    
Total frac: 1.000

Device (0) CPU_1:
Rows total: 6.0
Mem total: 6796.109375

Device (1) P4_1:
Rows total: 1.0
Mem total: 0.33984375

Device (2) CPU_2:
Rows total: 3.0
Mem total: 3398.21484375
--------------------------------------------------
Changed value of parameter NonConvex to 2
   Prev: -1  Min: -1  Max: 2  Default: -1
Changed value of parameter NonConvex to 2
   Prev: -1  Min: -1  Max: 2  Default: -1

Throughput: 56.00000000000043 Mpps, ns per packet: 17.85714285714272
Resources: 111.50150442123413
Used Cores: 11.0, Total CPUS: 2, Switch Memory: 0.33984375

Sketch (0) (cm: eps0: 0.03125, del0: 0.05, min_mem: 0.33984375)
Par: 1, Rows: 1
(-0.000,0)    (1.000,1)    (-0.000,2)    
Total frac: 1.000
Par: 2, Rows: 1
(-0.000,2)    (-0.000,1)    (1.000,0)    
Total frac: 1.000
Par: 3, Rows: 1
(-0.000,1)    (1.000,2)    (-0.000,0)    
Total frac: 1.000

Sketch (1) (cm: eps0: 3.125e-06, del0: 0.05, min_mem: 3397.85546875)
Par: 1, Rows: 1
(0.000,1)    (-0.000,0)    (1.000,2)    
Total frac: 1.000
Par: 2, Rows: 1
(-0.000,2)    (1.000,0)    (0.000,1)    
Total frac: 1.000
Par: 3, Rows: 1
(-0.000,2)    (0.000,1)    (1.000,0)    
Total frac: 1.000

Sketch (2) (cm: eps0: 0.625, del0: 0.025, min_mem: 0.01953125)
Par: 1, Rows: 1
(-0.000,1)    (-0.000,2)    (1.000,0)    
Total frac: 1.000
Par: 2, Rows: 1
(-0.000,0)    (1.000,2)    (0.000,1)    
Total frac: 1.000
Par: 3, Rows: 1
(-0.000,2)    (1.000,0)    (0.000,1)    
Total frac: 1.000
Par: 4, Rows: 1
(-0.000,2)    (0.000,1)    (1.000,0)    
Total frac: 1.000

Device (0) CPU_1:
cores_sketch: 3.9999999999999996, cores_dpdk: 3.0000000000000004
Rows total: 6.0
Mem total: 6796.109375
Throughput: 64.94875632437206

Device (1) P4_1:
Rows total: 1.0
Mem total: 0.33984375
Throughput: 148.0

Device (2) CPU_2:
cores_sketch: 2.0, cores_dpdk: 2.0
Rows total: 3.0
Mem total: 3398.21484375
Throughput: 56.00000000000043
--------------------------------------------------
Function: MIP.solve took 0.036849021911621094 seconds
Function: solve took 0.037177085876464844 seconds
